(set-info :smt-lib-version 2.6)
(set-logic UF)
(set-info :source |
Generated by: David Deharbe, CLEARSY
Generated on: 2019-09-06
Generator: bxml;pog;pog2smt (Atelier B)
Application: B-method
Target solver: CVC4, Z3
|)
(set-info :license "https://creativecommons.org/licenses/by-nc/4.0/")
(set-info :category "industrial")
(set-info :status unknown)
; Prelude
(declare-sort U 0)
(declare-fun |*i| (U U) U)
(declare-fun |+i| (U U) U)
(declare-fun |-i| (U U) U)
(declare-fun idiv (U U) U)
(declare-fun |*r| (U U) U)
(declare-fun |+r| (U U) U)
(declare-fun |-r| (U U) U)
(declare-fun rdiv (U U) U)
(declare-fun modulo (U U) U)
(declare-fun |<i| (U U) Bool)
(declare-fun |<=i| (U U) Bool)
(declare-fun |>i| (U U) Bool)
(declare-fun |>=i| (U U) Bool)
(declare-fun |<r| (U U) Bool)
(declare-fun |<=r| (U U) Bool)
(declare-fun |>r| (U U) Bool)
(declare-fun |>=r| (U U) Bool)
(declare-fun iuminus (U) U)
(declare-fun ruminus (U) U)
(declare-fun TRUE () U)
(declare-fun FALSE () U)
(assert (not (= TRUE FALSE)))
(declare-fun empty () U)
(declare-fun bool (Bool) U)
(declare-fun BOOL () U)
(declare-fun INT () U)
(declare-fun INTEGER () U)
(declare-fun NAT () U)
(declare-fun NAT1 () U)
(declare-fun NATURAL () U)
(declare-fun NATURAL1 () U)
(declare-fun FLOAT () U)
(declare-fun MaxInt () U)
(declare-fun MinInt () U)
(declare-fun |STRING| () U)
(declare-fun REAL () U)
(declare-fun set_prod (U U) U)
(declare-fun set_diff (U U) U)
(declare-fun mapplet (U U) U)
(declare-fun |**i| (U U) U)
(declare-fun |**r| (U U) U)
(declare-fun |+->| (U U) U)
(declare-fun |+->>| (U U) U)
(declare-fun |-->| (U U) U)
(declare-fun |-->>| (U U) U)
(declare-fun |<->| (U U) U)
(declare-fun |>+>| (U U) U)
(declare-fun |>->| (U U) U)
(declare-fun |>+>>| (U U) U)
(declare-fun |>->>| (U U) U)
(declare-fun |->| (U U) U)
(declare-fun interval (U U) U)
(declare-fun composition (U U) U)
(declare-fun binary_inter (U U) U)
(declare-fun restriction_head (U U) U)
(declare-fun semicolon (U U) U)
(declare-fun |<+| (U U) U)
(declare-fun |<-| (U U) U)
(declare-fun domain_subtraction (U U) U)
(declare-fun domain_restriction (U U) U)
(declare-fun |><| (U U) U)
(declare-fun parallel_product (U U) U)
(declare-fun binary_union (U U) U)
(declare-fun restriction_tail (U U) U)
(declare-fun concatenate (U U) U)
(declare-fun range_restriction (U U) U)
(declare-fun range_subtraction (U U) U)
(declare-fun image (U U) U)
(declare-fun apply (U U) U)
(declare-fun prj1 (U U) U)
(declare-fun prj2 (U U) U)
(declare-fun iterate (U U) U)
(declare-fun |const| (U U) U)
(declare-fun rank (U U) U)
(declare-fun father (U U) U)
(declare-fun subtree (U U) U)
(declare-fun arity (U U) U)
(declare-fun |+f| (U U) U)
(declare-fun |-f| (U U) U)
(declare-fun |*f| (U U) U)
(declare-fun |fdiv| (U U) U)
(declare-fun tbin (U U U) U)
(declare-fun son (U U U) U)
(declare-fun mem (U U) Bool)
(declare-fun subset (U U) Bool)
(declare-fun strict_subset (U U) Bool)
(declare-fun |<=f| (U U) Bool)
(declare-fun |<f| (U U) Bool)
(declare-fun |>=f| (U U) Bool)
(declare-fun |>f| (U U) Bool)
(declare-fun imax (U) U)
(declare-fun imin (U) U)
(declare-fun rmax (U) U)
(declare-fun rmin (U) U)
(declare-fun card (U) U)
(declare-fun dom (U) U)
(declare-fun ran (U) U)
(declare-fun POW (U) U)
(declare-fun POW1 (U) U)
(declare-fun FIN (U) U)
(declare-fun FIN1 (U) U)
(declare-fun union (U) U)
(declare-fun inter (U) U)
(declare-fun seq (U) U)
(declare-fun seq1 (U) U)
(declare-fun iseq (U) U)
(declare-fun iseq1 (U) U)
(declare-fun inverse (U) U)
(declare-fun size (U) U)
(declare-fun perm (U) U)
(declare-fun first (U) U)
(declare-fun last (U) U)
(declare-fun id (U) U)
(declare-fun closure (U) U)
(declare-fun closure1 (U) U)
(declare-fun tail (U) U)
(declare-fun front (U) U)
(declare-fun reverse (U) U)
(declare-fun rev (U) U)
(declare-fun conc (U) U)
(declare-fun succ (U) U)
(declare-fun pred (U) U)
(declare-fun rel (U) U)
(declare-fun fnc (U) U)
(declare-fun real (U) U)
(declare-fun floor (U) U)
(declare-fun ceiling (U) U)
(declare-fun tree (U) U)
(declare-fun btree (U) U)
(declare-fun top (U) U)
(declare-fun sons (U) U)
(declare-fun prefix (U) U)
(declare-fun postfix (U) U)
(declare-fun sizet (U) U)
(declare-fun mirror (U) U)
(declare-fun left (U) U)
(declare-fun right (U) U)
(declare-fun infix (U) U)
(declare-fun ubin (U) U)
(declare-fun SEQ (U) U)
(declare-fun SET (U) U)
; Opaque formulas
(declare-fun e18 () U)
(declare-fun e0 () U)
(declare-fun e43 () U)
(declare-fun e22 () U)
(declare-fun e123 () U)
(declare-fun e134 () U)
(declare-fun e112 () U)
(declare-fun e119 () U)
(declare-fun e111 () U)
(declare-fun e146 () U)
(declare-fun e20 () U)
(declare-fun e38 () U)
(declare-fun e19 () U)
(declare-fun g_s0_1 () U)
(declare-fun g_s1_2 () U)
(declare-fun g_s10_10 () U)
(declare-fun g_s100_121 () U)
(declare-fun g_s101_122 () U)
(declare-fun g_s102_124 () U)
(declare-fun g_s103_125 () U)
(declare-fun g_s104_126 () U)
(declare-fun g_s105_127 () U)
(declare-fun g_s106_128 () U)
(declare-fun g_s107_129 () U)
(declare-fun g_s108_130 () U)
(declare-fun g_s109_131 () U)
(declare-fun g_s11_13 () U)
(declare-fun g_s110_132 () U)
(declare-fun g_s111_133 () U)
(declare-fun g_s112_135 () U)
(declare-fun g_s113_136 () U)
(declare-fun g_s114_137 () U)
(declare-fun g_s115_138 () U)
(declare-fun g_s116_139 () U)
(declare-fun g_s117_140 () U)
(declare-fun g_s118_141 () U)
(declare-fun g_s119_142 () U)
(declare-fun g_s12_12 () U)
(declare-fun g_s120_143 () U)
(declare-fun g_s121_144 () U)
(declare-fun g_s122_145 () U)
(declare-fun g_s123_147 () U)
(declare-fun g_s124_148 () U)
(declare-fun g_s125_149 () U)
(declare-fun g_s126_150 () U)
(declare-fun g_s127_151 () U)
(declare-fun g_s128_152 () U)
(declare-fun g_s129_153 () U)
(declare-fun g_s13_15 () U)
(declare-fun g_s130_154 () U)
(declare-fun g_s131_155 () U)
(declare-fun g_s132_156 () U)
(declare-fun g_s133_157 () U)
(declare-fun g_s134_158 () U)
(declare-fun g_s135_160 () U)
(declare-fun g_s136_159 () U)
(declare-fun g_s137_161 () U)
(declare-fun g_s138_162 () U)
(declare-fun g_s139_163 () U)
(declare-fun g_s14_14 () U)
(declare-fun g_s140_164 () U)
(declare-fun g_s141_165 () U)
(declare-fun g_s142_166 () U)
(declare-fun g_s143_167 () U)
(declare-fun g_s144_168 () U)
(declare-fun g_s145_169 () U)
(declare-fun g_s146_170 () U)
(declare-fun g_s147_171 () U)
(declare-fun g_s148_172 () U)
(declare-fun g_s149_173 () U)
(declare-fun g_s149$1_174 () U)
(declare-fun g_s15_16 () U)
(declare-fun g_s150$1_175 () U)
(declare-fun g_s151$1_176 () U)
(declare-fun g_s156_177 () U)
(declare-fun g_s156$1_178 () U)
(declare-fun g_s16_17 () U)
(declare-fun g_s17_21 () U)
(declare-fun g_s18_23 () U)
(declare-fun g_s19_24 () U)
(declare-fun g_s2_3 () U)
(declare-fun g_s20_25 () U)
(declare-fun g_s21_26 () U)
(declare-fun g_s22_27 () U)
(declare-fun g_s23_28 () U)
(declare-fun g_s24_29 () U)
(declare-fun g_s25_30 () U)
(declare-fun g_s26_31 () U)
(declare-fun g_s27_32 () U)
(declare-fun g_s28_33 () U)
(declare-fun g_s29_34 () U)
(declare-fun g_s3_4 () U)
(declare-fun g_s30_35 () U)
(declare-fun g_s31_36 () U)
(declare-fun g_s32_37 () U)
(declare-fun g_s33_39 () U)
(declare-fun g_s34_40 () U)
(declare-fun g_s35_41 () U)
(declare-fun g_s36_42 () U)
(declare-fun g_s37_44 () U)
(declare-fun g_s38_45 () U)
(declare-fun g_s39_46 () U)
(declare-fun g_s4_5 () U)
(declare-fun g_s40_47 () U)
(declare-fun g_s41_48 () U)
(declare-fun g_s42_49 () U)
(declare-fun g_s43_50 () U)
(declare-fun g_s44_51 () U)
(declare-fun g_s45_52 () U)
(declare-fun g_s46_53 () U)
(declare-fun g_s47_54 () U)
(declare-fun g_s48_55 () U)
(declare-fun g_s49_56 () U)
(declare-fun g_s5_6 () U)
(declare-fun g_s50_57 () U)
(declare-fun g_s51_58 () U)
(declare-fun g_s52_59 () U)
(declare-fun g_s53_60 () U)
(declare-fun g_s54_61 () U)
(declare-fun g_s55_62 () U)
(declare-fun g_s56_63 () U)
(declare-fun g_s57_64 () U)
(declare-fun g_s58_65 () U)
(declare-fun g_s59_66 () U)
(declare-fun g_s6_7 () U)
(declare-fun g_s60_67 () U)
(declare-fun g_s61_68 () U)
(declare-fun g_s62_69 () U)
(declare-fun g_s63_70 () U)
(declare-fun g_s64_71 () U)
(declare-fun g_s65_72 () U)
(declare-fun g_s66_73 () U)
(declare-fun g_s67_74 () U)
(declare-fun g_s68_75 () U)
(declare-fun g_s69_76 () U)
(declare-fun g_s7_8 () U)
(declare-fun g_s70_77 () U)
(declare-fun g_s71_78 () U)
(declare-fun g_s72_79 () U)
(declare-fun g_s73_80 () U)
(declare-fun g_s74_81 () U)
(declare-fun g_s75_82 () U)
(declare-fun g_s76_83 () U)
(declare-fun g_s77_84 () U)
(declare-fun g_s78_85 () U)
(declare-fun g_s79_86 () U)
(declare-fun g_s8_9 () U)
(declare-fun g_s80_87 () U)
(declare-fun g_s81_88 () U)
(declare-fun g_s82_89 () U)
(declare-fun g_s83_90 () U)
(declare-fun g_s84_91 () U)
(declare-fun g_s85_92 () U)
(declare-fun g_s86_93 () U)
(declare-fun g_s87_94 () U)
(declare-fun g_s88_95 () U)
(declare-fun g_s9_11 () U)
(declare-fun g_s93_113 () U)
(declare-fun g_s94_114 () U)
(declare-fun g_s95_115 () U)
(declare-fun g_s96_116 () U)
(declare-fun g_s97_117 () U)
(declare-fun g_s98_118 () U)
(declare-fun g_s99_120 () U)
(declare-fun e102 () U)
(declare-fun e103 () U)
(declare-fun e104 () U)
(declare-fun e96 () U)
(declare-fun e99 () U)
(declare-fun e97 () U)
(declare-fun e100 () U)
(declare-fun e98 () U)
(declare-fun e101 () U)
(declare-fun e105 () U)
(declare-fun e106 () U)
(declare-fun e107 () U)
(declare-fun e108 () U)
(declare-fun e109 () U)
(declare-fun e110 () U)
; Defines
(define-fun |def_B definitions| () Bool (and (= NAT (interval e0 MaxInt)) (= INT (interval MinInt MaxInt))))
(define-fun |def_ctx| () Bool (and (= g_s0_1 (SET (mapplet g_s2_3 g_s1_2))) (= g_s3_4 (SET (mapplet g_s8_9 (mapplet g_s7_8 (mapplet g_s6_7 (mapplet g_s5_6 g_s4_5)))))) (mem g_s9_11 g_s10_10) (mem g_s11_13 g_s12_12) (mem g_s13_15 g_s14_14) (mem g_s15_16 g_s14_14) (mem g_s16_17 g_s14_14) (= g_s9_11 e18) (= g_s11_13 e19) (= g_s13_15 e20) (and (|>=i| g_s15_16 e0) (|<=i| g_s15_16 g_s13_15)) (and (|>=i| g_s16_17 e0) (|<=i| g_s16_17 g_s13_15)) (not (= g_s15_16 g_s16_17)) (= g_s17_21 (SET (mapplet g_s16_17 g_s15_16))) (|<=i| g_s15_16 e22) (|<=i| g_s16_17 e22) (= g_s18_23 (SET (mapplet (mapplet FALSE g_s16_17) (mapplet TRUE g_s15_16)))) (= g_s10_10 (interval e0 e18)) (= g_s12_12 (interval e0 e19)) (= g_s14_14 (interval e0 e20)) (mem g_s19_24 g_s10_10) (mem g_s20_25 g_s10_10) (not (= g_s19_24 g_s20_25)) (mem g_s21_26 NAT1) (mem g_s22_27 g_s10_10) (|<i| g_s22_27 (|-i| g_s9_11 g_s11_13)) (mem g_s23_28 g_s10_10) (= g_s23_28 (|+i| g_s22_27 g_s21_26)) (mem g_s24_29 g_s10_10) (mem g_s25_30 g_s10_10) (mem g_s26_31 NAT1) (mem g_s27_32 NAT1) (mem g_s21_26 NAT1) (mem g_s28_33 g_s10_10) (mem g_s29_34 g_s10_10) (mem g_s30_35 g_s10_10) (= g_s29_34 (|+i| g_s28_33 g_s26_31)) (= g_s30_35 (|+i| g_s28_33 g_s27_32)) (mem g_s31_36 g_s12_12) (mem g_s32_37 g_s10_10) (|<=i| g_s32_37 e38) (mem g_s33_39 NAT1) (mem g_s34_40 g_s10_10) (|<i| g_s34_40 (|-i| g_s9_11 g_s11_13)) (mem g_s35_41 g_s10_10) (= g_s35_41 (|+i| g_s34_40 g_s33_39)) (mem g_s36_42 g_s10_10) (|<=i| e43 g_s36_42) (mem g_s37_44 g_s10_10) (mem g_s38_45 g_s10_10) (mem g_s39_46 g_s10_10) (|<i| g_s39_46 (|-i| g_s9_11 g_s11_13)) (mem g_s40_47 g_s10_10) (mem g_s41_48 NAT1) (= g_s40_47 (|+i| g_s39_46 g_s41_48)) (mem g_s42_49 NATURAL1) (mem g_s43_50 g_s10_10) (= g_s43_50 (|+i| g_s39_46 g_s42_49)) (mem g_s44_51 g_s10_10) (mem g_s45_52 g_s10_10) (mem g_s46_53 g_s10_10) (mem g_s47_54 g_s10_10) (mem g_s48_55 g_s12_12) (|<i| (|*i| e22 g_s48_55) g_s11_13) (mem g_s49_56 NAT1) (mem g_s50_57 g_s12_12) (mem g_s51_58 g_s12_12) (= g_s51_58 (|+i| g_s50_57 g_s49_56)) (mem g_s52_59 g_s10_10) (mem g_s53_60 g_s10_10) (mem g_s54_61 g_s10_10) (mem g_s55_62 g_s10_10) (mem g_s56_63 g_s10_10) (mem g_s57_64 g_s10_10) (mem g_s58_65 g_s10_10) (mem g_s59_66 g_s10_10) (mem g_s60_67 g_s10_10) (mem g_s61_68 g_s10_10) (mem g_s62_69 (|-->| (set_prod g_s10_10 g_s14_14) g_s10_10)) (mem g_s63_70 (|-->| (set_prod g_s10_10 g_s14_14) g_s10_10)) (mem g_s64_71 (|-->| g_s10_10 g_s10_10)) (mem g_s65_72 (|-->| (set_prod g_s10_10 g_s10_10) g_s10_10)) (mem g_s66_73 (|-->| (set_prod g_s10_10 g_s10_10) g_s10_10)) (mem g_s67_74 (|-->| (set_prod g_s10_10 g_s10_10) g_s10_10)) (mem g_s68_75 (|-->| (set_prod g_s12_12 g_s14_14) g_s12_12)) (mem g_s69_76 (|-->| (set_prod g_s12_12 g_s14_14) g_s12_12)) (mem g_s70_77 (|-->| g_s12_12 g_s12_12)) (mem g_s71_78 (|-->| (set_prod g_s12_12 g_s12_12) g_s12_12)) (mem g_s72_79 (|-->| (set_prod g_s12_12 g_s12_12) g_s12_12)) (mem g_s73_80 (|-->| (set_prod g_s12_12 g_s12_12) g_s12_12)) (mem g_s74_81 (|-->| (set_prod g_s14_14 g_s14_14) g_s14_14)) (mem g_s75_82 (|-->| (set_prod g_s14_14 g_s14_14) g_s14_14)) (mem g_s76_83 (|-->| g_s14_14 g_s14_14)) (mem g_s77_84 (|-->| (set_prod g_s14_14 g_s14_14) g_s14_14)) (mem g_s78_85 (|-->| (set_prod g_s14_14 g_s14_14) g_s14_14)) (mem g_s79_86 (|-->| (set_prod g_s14_14 g_s14_14) g_s14_14)) (mem g_s80_87 (|-->| (set_prod g_s10_10 g_s10_10) g_s10_10)) (mem g_s81_88 (|-->| (set_prod g_s10_10 g_s10_10) g_s10_10)) (mem g_s82_89 (|-->| (set_prod g_s10_10 g_s10_10) g_s10_10)) (mem g_s83_90 (|-->| (set_prod g_s12_12 g_s12_12) g_s12_12)) (mem g_s84_91 (|-->| (set_prod g_s12_12 g_s12_12) g_s12_12)) (mem g_s85_92 (|-->| (set_prod g_s12_12 g_s12_12) g_s12_12)) (mem g_s86_93 (|-->| (set_prod g_s14_14 g_s14_14) g_s14_14)) (mem g_s87_94 (|-->| (set_prod g_s14_14 g_s14_14) g_s14_14)) (mem g_s88_95 (|-->| (set_prod g_s14_14 g_s14_14) g_s14_14)) (= g_s62_69 e96) (= g_s68_75 e97) (= g_s74_81 e98) (= g_s63_70 e99) (= g_s69_76 e100) (= g_s75_82 e101) (= g_s80_87 e102) (= g_s81_88 e103) (= g_s82_89 e104) (= g_s83_90 e105) (= g_s84_91 e106) (= g_s85_92 e107) (= g_s86_93 e108) (= g_s87_94 e109) (= g_s88_95 e110) (mem g_s93_113 (|-->| (set_prod (interval e0 e112) (interval e0 e111)) g_s14_14)) (mem g_s94_114 (|-->| (set_prod (interval e0 e112) (interval e0 e22)) g_s12_12)) (mem g_s95_115 g_s14_14) (mem g_s96_116 g_s14_14) (|<=i| g_s96_116 e20) (|<=i| e43 g_s96_116) (mem g_s97_117 g_s10_10) (mem g_s98_118 g_s14_14) (|<=i| g_s98_118 e119) (|<=i| e43 g_s98_118) (mem g_s99_120 g_s14_14) (|<=i| g_s99_120 e112) (= g_s99_120 (|-i| g_s98_118 e43)) (mem g_s100_121 g_s14_14) (mem g_s101_122 (|-->| (interval e0 e43) g_s12_12)) (mem g_s101_122 (|>->| (interval e0 e43) g_s12_12)) (mem g_s102_124 (|-->| (set_prod (interval e0 e43) (interval e0 e123)) g_s14_14)) (mem g_s103_125 (|-->| (interval e0 e22) g_s14_14)) (mem g_s104_126 g_s10_10) (mem g_s105_127 (|-->| (interval e0 e112) g_s10_10)) (mem g_s106_128 (|-->| (interval e0 e112) g_s10_10)) (mem g_s107_129 (|-->| (interval e0 e112) g_s10_10)) (mem g_s108_130 (|-->| (interval e0 e112) g_s10_10)) (mem g_s109_131 (|-->| (interval e0 e112) g_s14_14)) (mem g_s110_132 (|-->| (interval e0 e112) g_s14_14)) (mem g_s111_133 (|-->| (interval e0 e112) g_s14_14)) (mem g_s112_135 (|-->| (set_prod (interval e0 e112) (interval e0 e134)) g_s12_12)) (mem g_s113_136 (|-->| (set_prod (interval e0 e112) (interval e0 e134)) g_s12_12)) (mem g_s114_137 (|-->| (set_prod (interval e0 e112) (interval e0 e134)) g_s14_14)) (mem g_s115_138 (|-->| (set_prod (interval e0 e112) (interval e0 e134)) g_s12_12)) (mem g_s116_139 (|-->| (set_prod (interval e0 e112) (interval e0 e134)) g_s10_10)) (mem g_s117_140 (|-->| (interval e0 e112) g_s12_12)) (mem g_s118_141 (|-->| (set_prod (interval e0 e112) (interval e0 e111)) g_s14_14)) (mem g_s119_142 (|-->| (set_prod (interval e0 e112) (interval e0 e111)) g_s14_14)) (mem g_s120_143 (|-->| (set_prod (interval e0 e112) (interval e0 e111)) g_s14_14)) (mem g_s121_144 (|-->| (set_prod (interval e0 e112) (interval e0 e111)) g_s14_14)) (mem g_s122_145 (|-->| (interval e0 e43) g_s14_14)) (mem g_s122_145 (|-->| (interval e0 e43) (interval e43 e146))) (mem g_s123_147 (|-->| (interval e0 e43) g_s14_14)) (mem g_s123_147 (|-->| (interval e0 e43) (interval e43 e146))) (mem g_s124_148 (|-->| (interval e0 e43) g_s14_14)) (mem g_s125_149 (|-->| (interval e0 e43) g_s14_14))))
(define-fun |def_seext| () Bool (and (mem g_s126_150 g_s10_10) (mem g_s127_151 g_s10_10) (mem g_s128_152 g_s14_14) (or (= g_s128_152 e43) (= g_s128_152 e22)) (mem g_s129_153 g_s10_10) (mem g_s130_154 g_s10_10) (mem g_s131_155 g_s10_10) (mem g_s132_156 g_s10_10) (mem g_s133_157 g_s10_10) (mem g_s134_158 g_s10_10) (mem g_s135_160 (|-->| (interval e0 g_s136_159) g_s14_14)) (mem g_s137_161 g_s10_10) (mem g_s138_162 g_s10_10) (mem g_s139_163 g_s10_10) (mem g_s140_164 g_s10_10) (mem g_s141_165 g_s10_10) (mem g_s142_166 (|-->| (interval e0 e22) g_s14_14)) (mem g_s143_167 (|-->| (interval e0 e22) g_s14_14)) (mem g_s144_168 g_s12_12) (mem g_s145_169 NATURAL) (subset g_s146_170 (interval e0 g_s145_169)) (mem g_s147_171 BOOL) (mem g_s148_172 BOOL) (mem g_s18_23 (|+->| BOOL g_s14_14)) (mem g_s18_23 (|+->| BOOL g_s12_12)) (mem g_s18_23 (|+->| BOOL g_s10_10)) (not (= (apply g_s101_122 e0) (apply g_s101_122 e43))) (= (ran g_s101_122) (SET (mapplet (apply g_s101_122 e43) (apply g_s101_122 e0))))))
(define-fun |def_lprp| () Bool true)
(define-fun |def_inprp| () Bool true)
(define-fun |def_inext| () Bool true)
(define-fun |def_mchcst| () Bool true)
(define-fun |def_aprp| () Bool true)
(define-fun |def_abs| () Bool  (mem g_s149_173 BOOL))
(define-fun |def_inv| () Bool (and (= g_s149_173 g_s149$1_174) (mem g_s150$1_175 NATURAL) (mem g_s151$1_176 (|+->| NATURAL INTEGER)) (mem g_s149$1_174 BOOL) (= (dom g_s151$1_176) (interval e0 g_s150$1_175))))
(define-fun |def_ass| () Bool true)
(define-fun |def_sets| () Bool true)
; PO group 0 
(push 1)
(assert |def_B definitions|)
(assert |def_ctx|)
(assert |def_mchcst|)
(assert |def_aprp|)
(assert |def_lprp|)
(assert |def_inprp|)
(assert |def_inext|)
(assert |def_seext|)
; PO 1 in group 0
(push 1)
(assert (not (mem e0 NATURAL)))
(check-sat)
(pop 1)
; PO 2 in group 0
(push 1)
(assert (not (mem (SET (mapplet e0 e0)) (|+->| NATURAL INTEGER))))
(set-info :status unknown)
(check-sat)
(pop 1)
; PO 3 in group 0
(push 1)
(assert (not (= (dom (SET (mapplet e0 e0))) (interval e0 e0))))
(set-info :status unknown)
(check-sat)
(pop 1)
(pop 1)
; PO group 1 
(push 1)
(assert |def_B definitions|)
(assert |def_ctx|)
(assert |def_mchcst|)
(assert |def_aprp|)
(assert |def_lprp|)
(assert |def_inprp|)
(assert |def_inext|)
(assert |def_seext|)
(assert |def_abs|)
(assert |def_inv|)
(assert |def_ass|)
(define-fun lh_1 () Bool (mem g_s145_169 g_s146_170))
(define-fun lh_2 () Bool (|>=i| (|+i| g_s150$1_175 e43) g_s49_56))
(define-fun lh_3 () Bool (= (image (|<+| g_s151$1_176 (SET (mapplet (|+i| g_s150$1_175 e43) g_s139_163))) (interval (|+i| (|-i| g_s150$1_175 g_s49_56) e43) (|+i| g_s150$1_175 e43))) (SET (apply (|<+| g_s151$1_176 (SET (mapplet (|+i| g_s150$1_175 e43) g_s139_163))) (|+i| g_s150$1_175 e43)))))
(define-fun lh_4 () Bool (not (and (|>=i| (|+i| g_s150$1_175 e43) g_s49_56) (= (image (|<+| g_s151$1_176 (SET (mapplet (|+i| g_s150$1_175 e43) g_s139_163))) (interval (|+i| (|-i| g_s150$1_175 g_s49_56) e43) (|+i| g_s150$1_175 e43))) (SET (apply (|<+| g_s151$1_176 (SET (mapplet (|+i| g_s150$1_175 e43) g_s139_163))) (|+i| g_s150$1_175 e43)))))))
; PO 1 in group 1
(push 1)
(assert (not (=> (and lh_1 lh_4) (mem (|<+| g_s151$1_176 (SET (mapplet (|+i| g_s150$1_175 e43) g_s139_163))) (|+->| NATURAL INTEGER)))))
(set-info :status unknown)
(check-sat)
(pop 1)
; PO 2 in group 1
(push 1)
(assert (not (=> (and lh_1 lh_4) (mem (|+i| g_s150$1_175 e43) NATURAL))))
(set-info :status unknown)
(check-sat)
(pop 1)
; PO 3 in group 1
(push 1)
(assert (not (=> (and lh_1 lh_4) (= (dom (|<+| g_s151$1_176 (SET (mapplet (|+i| g_s150$1_175 e43) g_s139_163)))) (interval e0 (|+i| g_s150$1_175 e43))))))
(set-info :status unknown)
(check-sat)
(pop 1)
; PO 4 in group 1
(push 1)
(assert (not (=> (and lh_1 lh_2 lh_3) (mem (|<+| g_s151$1_176 (SET (mapplet (|+i| g_s150$1_175 e43) g_s139_163))) (|+->| NATURAL INTEGER)))))
(set-info :status unknown)
(check-sat)
(pop 1)
; PO 5 in group 1
(push 1)
(assert (not (=> (and lh_1 lh_2 lh_3) (mem (|+i| g_s150$1_175 e43) NATURAL))))
(set-info :status unknown)
(check-sat)
(pop 1)
; PO 6 in group 1
(push 1)
(assert (not (=> (and lh_1 lh_2 lh_3) (= (dom (|<+| g_s151$1_176 (SET (mapplet (|+i| g_s150$1_175 e43) g_s139_163)))) (interval e0 (|+i| g_s150$1_175 e43))))))
(set-info :status unknown)
(check-sat)
(pop 1)
(pop 1)
; PO group 2 
(push 1)
(assert |def_B definitions|)
(assert |def_ctx|)
(assert |def_mchcst|)
(assert |def_aprp|)
(assert |def_lprp|)
(assert |def_inprp|)
(assert |def_inext|)
(assert |def_seext|)
(assert |def_abs|)
(assert |def_inv|)
(assert |def_ass|)
(assert (mem g_s156_177 g_s14_14))
(assert (= g_s156_177 g_s156$1_178))
; PO 1 in group 2
(assert (not (mem g_s156$1_178 g_s14_14)))
(set-info :status unknown)
(check-sat)
(pop 1)
; PO group 3 
(push 1)
(assert |def_B definitions|)
(assert |def_ctx|)
(assert |def_mchcst|)
(assert |def_aprp|)
(assert |def_lprp|)
(assert |def_inprp|)
(assert |def_inext|)
(assert |def_seext|)
(assert |def_abs|)
(assert |def_inv|)
(assert |def_ass|)
(assert (mem g_s156_177 g_s14_14))
(assert (= g_s156_177 g_s156$1_178))
(assert (mem g_s156$1_178 g_s14_14))
; PO 1 in group 3
(assert (not (= (apply g_s18_23 g_s149_173) (apply g_s18_23 g_s149$1_174))))
(set-info :status unknown)
(check-sat)
(pop 1)
; PO group 4 
(push 1)
(assert |def_B definitions|)
(assert |def_ctx|)
(assert |def_mchcst|)
(assert |def_aprp|)
(assert |def_lprp|)
(assert |def_inprp|)
(assert |def_inext|)
(assert |def_seext|)
(assert |def_abs|)
(assert |def_inv|)
(assert |def_ass|)
(define-fun lh_1 () Bool (mem g_s145_169 g_s146_170))
(define-fun lh_2 () Bool (= g_s128_152 e43))
(define-fun lh_3 () Bool (not (and (= g_s128_152 e43) (not (= g_s140_164 (apply g_s66_73 (mapplet g_s139_163 g_s97_117)))))))
(define-fun lh_4 () Bool (= g_s128_152 e22))
; PO 1 in group 4
(push 1)
(assert (not (=> (and lh_1 lh_2) (mem g_s66_73 (|+->| (dom g_s66_73) (ran g_s66_73))))))
(set-info :status unknown)
(check-sat)
(pop 1)
; PO 2 in group 4
(push 1)
(assert (not (=> (and lh_1 lh_2) (mem (mapplet g_s139_163 g_s97_117) (dom g_s66_73)))))
(set-info :status unknown)
(check-sat)
(pop 1)
; PO 3 in group 4
(push 1)
(assert (not (=> (and lh_1 lh_3 lh_4) (mem g_s66_73 (|+->| (dom g_s66_73) (ran g_s66_73))))))
(set-info :status unknown)
(check-sat)
(pop 1)
; PO 4 in group 4
(push 1)
(assert (not (=> (and lh_1 lh_3 lh_4) (mem (mapplet g_s139_163 g_s97_117) (dom g_s66_73)))))
(set-info :status unknown)
(check-sat)
(pop 1)
(pop 1)
; PO group 5 
(push 1)
(assert |def_B definitions|)
(assert |def_ctx|)
(assert |def_mchcst|)
(assert |def_aprp|)
(assert |def_lprp|)
(assert |def_inprp|)
(assert |def_inext|)
(assert |def_seext|)
(assert |def_abs|)
(assert |def_inv|)
(assert |def_ass|)
(define-fun lh_1 () Bool (not (mem g_s145_169 g_s146_170)))
(define-fun lh_2 () Bool (|>=i| (|+i| g_s150$1_175 e43) g_s49_56))
; PO 1 in group 5
(push 1)
(assert (not (=> lh_1 (mem g_s150$1_175 (dom g_s151$1_176)))))
(set-info :status unknown)
(check-sat)
(pop 1)
; PO 2 in group 5
(push 1)
(assert (not (=> lh_1 (mem g_s151$1_176 (|+->| (dom g_s151$1_176) (ran g_s151$1_176))))))
(set-info :status unknown)
(check-sat)
(pop 1)
; PO 3 in group 5
(push 1)
(assert (not (=> (and lh_1 lh_2) (mem (|<+| g_s151$1_176 (SET (mapplet (|+i| g_s150$1_175 e43) (apply g_s151$1_176 g_s150$1_175)))) (|+->| (dom (|<+| g_s151$1_176 (SET (mapplet (|+i| g_s150$1_175 e43) (apply g_s151$1_176 g_s150$1_175))))) (ran (|<+| g_s151$1_176 (SET (mapplet (|+i| g_s150$1_175 e43) (apply g_s151$1_176 g_s150$1_175))))))))))
(set-info :status unknown)
(check-sat)
(pop 1)
; PO 4 in group 5
(push 1)
(assert (not (=> (and lh_1 lh_2) (mem (|+i| g_s150$1_175 e43) (dom (|<+| g_s151$1_176 (SET (mapplet (|+i| g_s150$1_175 e43) (apply g_s151$1_176 g_s150$1_175)))))))))
(set-info :status unknown)
(check-sat)
(pop 1)
(pop 1)
; PO group 6 
(push 1)
(assert |def_B definitions|)
(assert |def_ctx|)
(assert |def_mchcst|)
(assert |def_aprp|)
(assert |def_lprp|)
(assert |def_inprp|)
(assert |def_inext|)
(assert |def_seext|)
(assert |def_abs|)
(assert |def_inv|)
(assert |def_ass|)
(assert (mem g_s156_177 g_s14_14))
(assert (mem g_s156$1_178 g_s14_14))
; PO 1 in group 6
(push 1)
(assert (not (mem g_s149$1_174 (dom g_s18_23))))
(set-info :status unknown)
(check-sat)
(pop 1)
; PO 2 in group 6
(push 1)
(assert (not (mem g_s18_23 (|+->| (dom g_s18_23) (ran g_s18_23)))))
(set-info :status unknown)
(check-sat)
(pop 1)
(pop 1)
(exit)